p cnf 14 21
8 0
-1 8 0
1 -8 0
9 0
-2 9 0
2 -9 0
10 0
-3 10 0
3 -10 0
11 0
-4 11 0
4 -11 0
12 0
-5 12 0
5 -12 0
13 0
-6 13 0
6 -13 0
14 0
-7 14 0
7 -14 0
c p weight 1 1.0 0
c p weight -1 1.0 0
c p weight 2 1.0 0
c p weight -2 1.0 0
c p weight 3 1.0 0
c p weight -3 1.0 0
c p weight 4 1.0 0
c p weight -4 1.0 0
c p weight 5 1.0 0
c p weight -5 1.0 0
c p weight 6 1.0 0
c p weight -6 1.0 0
c p weight 7 1.0 0
c p weight -7 1.0 0
c p weight 8 1.0 0
c p weight -8 1.0 0
c p weight 9 1.0 0
c p weight -9 1.0 0
c p weight 10 1.0 0
c p weight -10 1.0 0
c p weight 11 1.0 0
c p weight -11 1.0 0
c p weight 12 1.0 0
c p weight -12 1.0 0
c p weight 13 1.0 0
c p weight -13 1.0 0
c p weight 14 1.0 0
c p weight -14 1.0 0
c p semirings aspmc.semirings.probabilistic 0
c p quantify 1 2 3 4 5 6 7 8 9 10 11 12 13 14 0
c p auxilliary 1 2 3 4 5 6 7 8 9 10 11 12 13 14 0
